data/MCDM/NO_CORR/GEN_FROM_60/13_ITEMS_1000_GEN/K5013W11.KNP.mps
NAME          BLANK   
ROWS
 N  OBJROW
 L  R0000000
COLUMNS
    C0000000  OBJROW     -211.         R0000000  953.        
    C0000001  OBJROW     -705.         R0000000  38.         
    C0000002  OBJROW     -375.         R0000000  536.        
    C0000003  OBJROW     -388.         R0000000  428.        
    C0000004  OBJROW     -121.         R0000000  768.        
    C0000005  OBJROW     -560.         R0000000  755.        
    C0000006  OBJROW     -317.         R0000000  485.        
    C0000007  OBJROW     -164.         R0000000  836.        
    C0000008  OBJROW     -791.         R0000000  119.        
    C0000009  OBJROW     -889.         R0000000  238.        
    C0000010  OBJROW     -2.           R0000000  656.        
    C0000011  OBJROW     -647.         R0000000  675.        
    C0000012  OBJROW     -659.         R0000000  561.        
RHS
    RHS       R0000000  15060.      
BOUNDS
 BV BOUND     C0000000  1.          
 BV BOUND     C0000001  1.          
 BV BOUND     C0000002  1.          
 BV BOUND     C0000003  1.          
 BV BOUND     C0000004  1.          
 BV BOUND     C0000005  1.          
 BV BOUND     C0000006  1.          
 BV BOUND     C0000007  1.          
 BV BOUND     C0000008  1.          
 BV BOUND     C0000009  1.          
 BV BOUND     C0000010  1.          
 BV BOUND     C0000011  1.          
 BV BOUND     C0000012  1.          
ENDATA
