data/MCDM/NO_CORR/GEN_FROM_60/13_ITEMS_1000_GEN/K5013W11.KNP.txt
N 13
M 14
LC 13
LC 14
LC 15
LC 16
LC 17
LC 18
LC 19
LC 20
LC 21
LC 22
LC 23
LC 24
LC 25
LR 1
LR 2
LR 3
LR 4
LR 5
LR 6
LR 7
LR 8
LR 9
LR 10
LR 11
LR 12
LR 13
LR 14
LO -211
LO -705
LO -375
LO -388
LO -121
LO -560
LO -317
LO -164
LO -791
LO -889
LO -2
LO -647
LO -659
OS 1
IC 207
IC 607
IC 933
IC 141
IC 790
IC 793
IC 201
IC 905
IC 921
IC 767
IC 738
IC 249
IC 856
IB 4054
